NAME: 960.vrp-C193-R5
TYPE: SoftCluVRP
DIMENSION:  961 
VEHICLES:  11 
GVRP_SETS:  193 
CAPACITY:  2000 
EDGE_WEIGHT_TYPE: EUC_2D
NODE_COORD_SECTION 
1 0.000000 0.000000
2 30.000000 0.000000
3 29.630699 4.693000
4 28.531700 9.270500
5 26.730200 13.619700
6 24.270500 17.633600
7 21.213200 21.213200
8 17.633600 24.270500
9 13.619700 26.730200
10 9.270500 28.531700
11 4.693000 29.630699
12 0.000000 30.000000
13 -4.693000 29.630699
14 -9.270500 28.531700
15 -13.619700 26.730200
16 -17.633600 24.270500
17 -21.213200 21.213200
18 -24.270500 17.633600
19 -26.730200 13.619700
20 -28.531700 9.270500
21 -29.630699 4.693000
22 -30.000000 0.000000
23 -29.630699 -4.693000
24 -28.531700 -9.270500
25 -26.730200 -13.619700
26 -24.270500 -17.633600
27 -21.213200 -21.213200
28 -17.633600 -24.270500
29 -13.619700 -26.730200
30 -9.270500 -28.531700
31 -4.693000 -29.630699
32 -0.000000 -30.000000
33 4.693000 -29.630699
34 9.270500 -28.531700
35 13.619700 -26.730200
36 17.633600 -24.270500
37 21.213200 -21.213200
38 24.270500 -17.633600
39 26.730200 -13.619700
40 28.531700 -9.270500
41 29.630699 -4.693000
42 60.000000 0.000000
43 59.261299 9.386100
44 57.063400 18.541000
45 53.460400 27.239401
46 48.541000 35.267101
47 42.426399 42.426399
48 35.267101 48.541000
49 27.239401 53.460400
50 18.541000 57.063400
51 9.386100 59.261299
52 0.000000 60.000000
53 -9.386100 59.261299
54 -18.541000 57.063400
55 -27.239401 53.460400
56 -35.267101 48.541000
57 -42.426399 42.426399
58 -48.541000 35.267101
59 -53.460400 27.239401
60 -57.063400 18.541000
61 -59.261299 9.386100
62 -60.000000 0.000000
63 -59.261299 -9.386100
64 -57.063400 -18.541000
65 -53.460400 -27.239401
66 -48.541000 -35.267101
67 -42.426399 -42.426399
68 -35.267101 -48.541000
69 -27.239401 -53.460400
70 -18.541000 -57.063400
71 -9.386100 -59.261299
72 -0.000000 -60.000000
73 9.386100 -59.261299
74 18.541000 -57.063400
75 27.239401 -53.460400
76 35.267101 -48.541000
77 42.426399 -42.426399
78 48.541000 -35.267101
79 53.460400 -27.239401
80 57.063400 -18.541000
81 59.261299 -9.386100
82 90.000000 0.000000
83 88.891998 14.079100
84 85.595100 27.811501
85 80.190598 40.859100
86 72.811501 52.900700
87 63.639599 63.639599
88 52.900700 72.811501
89 40.859100 80.190598
90 27.811501 85.595100
91 14.079100 88.891998
92 0.000000 90.000000
93 -14.079100 88.891998
94 -27.811501 85.595100
95 -40.859100 80.190598
96 -52.900700 72.811501
97 -63.639599 63.639599
98 -72.811501 52.900700
99 -80.190598 40.859100
100 -85.595100 27.811501
101 -88.891998 14.079100
102 -90.000000 0.000000
103 -88.891998 -14.079100
104 -85.595100 -27.811501
105 -80.190598 -40.859100
106 -72.811501 -52.900700
107 -63.639599 -63.639599
108 -52.900700 -72.811501
109 -40.859100 -80.190598
110 -27.811501 -85.595100
111 -14.079100 -88.891998
112 -0.000000 -90.000000
113 14.079100 -88.891998
114 27.811501 -85.595100
115 40.859100 -80.190598
116 52.900700 -72.811501
117 63.639599 -63.639599
118 72.811501 -52.900700
119 80.190598 -40.859100
120 85.595100 -27.811501
121 88.891998 -14.079100
122 120.000000 0.000000
123 118.522598 18.772100
124 114.126801 37.082001
125 106.920799 54.478901
126 97.082001 70.534203
127 84.852798 84.852798
128 70.534203 97.082001
129 54.478901 106.920799
130 37.082001 114.126801
131 18.772100 118.522598
132 0.000000 120.000000
133 -18.772100 118.522598
134 -37.082001 114.126801
135 -54.478901 106.920799
136 -70.534203 97.082001
137 -84.852798 84.852798
138 -97.082001 70.534203
139 -106.920799 54.478901
140 -114.126801 37.082001
141 -118.522598 18.772100
142 -120.000000 0.000000
143 -118.522598 -18.772100
144 -114.126801 -37.082001
145 -106.920799 -54.478901
146 -97.082001 -70.534203
147 -84.852798 -84.852798
148 -70.534203 -97.082001
149 -54.478901 -106.920799
150 -37.082001 -114.126801
151 -18.772100 -118.522598
152 -0.000000 -120.000000
153 18.772100 -118.522598
154 37.082001 -114.126801
155 54.478901 -106.920799
156 70.534203 -97.082001
157 84.852798 -84.852798
158 97.082001 -70.534203
159 106.920799 -54.478901
160 114.126801 -37.082001
161 118.522598 -18.772100
162 150.000000 0.000000
163 148.153305 23.465200
164 142.658493 46.352501
165 133.651001 68.098602
166 121.352501 88.167801
167 106.066002 106.066002
168 88.167801 121.352501
169 68.098602 133.651001
170 46.352501 142.658493
171 23.465200 148.153305
172 0.000000 150.000000
173 -23.465200 148.153305
174 -46.352501 142.658493
175 -68.098602 133.651001
176 -88.167801 121.352501
177 -106.066002 106.066002
178 -121.352501 88.167801
179 -133.651001 68.098602
180 -142.658493 46.352501
181 -148.153305 23.465200
182 -150.000000 0.000000
183 -148.153305 -23.465200
184 -142.658493 -46.352501
185 -133.651001 -68.098602
186 -121.352501 -88.167801
187 -106.066002 -106.066002
188 -88.167801 -121.352501
189 -68.098602 -133.651001
190 -46.352501 -142.658493
191 -23.465200 -148.153305
192 -0.000000 -150.000000
193 23.465200 -148.153305
194 46.352501 -142.658493
195 68.098602 -133.651001
196 88.167801 -121.352501
197 106.066002 -106.066002
198 121.352501 -88.167801
199 133.651001 -68.098602
200 142.658493 -46.352501
201 148.153305 -23.465200
202 180.000000 0.000000
203 177.783905 28.158199
204 171.190201 55.623100
205 160.381195 81.718300
206 145.623093 105.801300
207 127.279198 127.279198
208 105.801300 145.623093
209 81.718300 160.381195
210 55.623100 171.190201
211 28.158199 177.783905
212 0.000000 180.000000
213 -28.158199 177.783905
214 -55.623100 171.190201
215 -81.718300 160.381195
216 -105.801300 145.623093
217 -127.279198 127.279198
218 -145.623093 105.801300
219 -160.381195 81.718300
220 -171.190201 55.623100
221 -177.783905 28.158199
222 -180.000000 0.000000
223 -177.783905 -28.158199
224 -171.190201 -55.623100
225 -160.381195 -81.718300
226 -145.623093 -105.801300
227 -127.279198 -127.279198
228 -105.801300 -145.623093
229 -81.718300 -160.381195
230 -55.623100 -171.190201
231 -28.158199 -177.783905
232 -0.000000 -180.000000
233 28.158199 -177.783905
234 55.623100 -171.190201
235 81.718300 -160.381195
236 105.801300 -145.623093
237 127.279198 -127.279198
238 145.623093 -105.801300
239 160.381195 -81.718300
240 171.190201 -55.623100
241 177.783905 -28.158199
242 210.000000 0.000000
243 207.414597 32.851200
244 199.721893 64.893600
245 187.111404 95.337997
246 169.893600 123.434898
247 148.492401 148.492401
248 123.434898 169.893600
249 95.337997 187.111404
250 64.893600 199.721893
251 32.851200 207.414597
252 0.000000 210.000000
253 -32.851200 207.414597
254 -64.893600 199.721893
255 -95.337997 187.111404
256 -123.434898 169.893600
257 -148.492401 148.492401
258 -169.893600 123.434898
259 -187.111404 95.337997
260 -199.721893 64.893600
261 -207.414597 32.851200
262 -210.000000 0.000000
263 -207.414597 -32.851200
264 -199.721893 -64.893600
265 -187.111404 -95.337997
266 -169.893600 -123.434898
267 -148.492401 -148.492401
268 -123.434898 -169.893600
269 -95.337997 -187.111404
270 -64.893600 -199.721893
271 -32.851200 -207.414597
272 -0.000000 -210.000000
273 32.851200 -207.414597
274 64.893600 -199.721893
275 95.337997 -187.111404
276 123.434898 -169.893600
277 148.492401 -148.492401
278 169.893600 -123.434898
279 187.111404 -95.337997
280 199.721893 -64.893600
281 207.414597 -32.851200
282 240.000000 0.000000
283 237.045197 37.544300
284 228.253601 74.164101
285 213.841599 108.957703
286 194.164093 141.068497
287 169.705597 169.705597
288 141.068497 194.164093
289 108.957703 213.841599
290 74.164101 228.253601
291 37.544300 237.045197
292 0.000000 240.000000
293 -37.544300 237.045197
294 -74.164101 228.253601
295 -108.957703 213.841599
296 -141.068497 194.164093
297 -169.705597 169.705597
298 -194.164093 141.068497
299 -213.841599 108.957703
300 -228.253601 74.164101
301 -237.045197 37.544300
302 -240.000000 0.000000
303 -237.045197 -37.544300
304 -228.253601 -74.164101
305 -213.841599 -108.957703
306 -194.164093 -141.068497
307 -169.705597 -169.705597
308 -141.068497 -194.164093
309 -108.957703 -213.841599
310 -74.164101 -228.253601
311 -37.544300 -237.045197
312 -0.000000 -240.000000
313 37.544300 -237.045197
314 74.164101 -228.253601
315 108.957703 -213.841599
316 141.068497 -194.164093
317 169.705597 -169.705597
318 194.164093 -141.068497
319 213.841599 -108.957703
320 228.253601 -74.164101
321 237.045197 -37.544300
322 270.000000 0.000000
323 266.675903 42.237301
324 256.785309 83.434601
325 240.571793 122.577400
326 218.434601 158.701996
327 190.918793 190.918793
328 158.701996 218.434601
329 122.577400 240.571793
330 83.434601 256.785309
331 42.237301 266.675903
332 0.000000 270.000000
333 -42.237301 266.675903
334 -83.434601 256.785309
335 -122.577400 240.571793
336 -158.701996 218.434601
337 -190.918793 190.918793
338 -218.434601 158.701996
339 -240.571793 122.577400
340 -256.785309 83.434601
341 -266.675903 42.237301
342 -270.000000 0.000000
343 -266.675903 -42.237301
344 -256.785309 -83.434601
345 -240.571793 -122.577400
346 -218.434601 -158.701996
347 -190.918793 -190.918793
348 -158.701996 -218.434601
349 -122.577400 -240.571793
350 -83.434601 -256.785309
351 -42.237301 -266.675903
352 -0.000000 -270.000000
353 42.237301 -266.675903
354 83.434601 -256.785309
355 122.577400 -240.571793
356 158.701996 -218.434601
357 190.918793 -190.918793
358 218.434601 -158.701996
359 240.571793 -122.577400
360 256.785309 -83.434601
361 266.675903 -42.237301
362 300.000000 0.000000
363 296.306488 46.930302
364 285.316986 92.705101
365 267.302002 136.197098
366 242.705093 176.335602
367 212.132004 212.132004
368 176.335602 242.705093
369 136.197098 267.302002
370 92.705101 285.316986
371 46.930302 296.306488
372 0.000000 300.000000
373 -46.930302 296.306488
374 -92.705101 285.316986
375 -136.197098 267.302002
376 -176.335602 242.705093
377 -212.132004 212.132004
378 -242.705093 176.335602
379 -267.302002 136.197098
380 -285.316986 92.705101
381 -296.306488 46.930302
382 -300.000000 0.000000
383 -296.306488 -46.930302
384 -285.316986 -92.705101
385 -267.302002 -136.197098
386 -242.705093 -176.335602
387 -212.132004 -212.132004
388 -176.335602 -242.705093
389 -136.197098 -267.302002
390 -92.705101 -285.316986
391 -46.930302 -296.306488
392 -0.000000 -300.000000
393 46.930302 -296.306488
394 92.705101 -285.316986
395 136.197098 -267.302002
396 176.335602 -242.705093
397 212.132004 -212.132004
398 242.705093 -176.335602
399 267.302002 -136.197098
400 285.316986 -92.705101
401 296.306488 -46.930302
402 330.000000 0.000000
403 325.937195 51.623402
404 313.848694 101.975601
405 294.032196 149.816895
406 266.975586 193.969101
407 233.345200 233.345200
408 193.969101 266.975586
409 149.816895 294.032196
410 101.975601 313.848694
411 51.623402 325.937195
412 0.000000 330.000000
413 -51.623402 325.937195
414 -101.975601 313.848694
415 -149.816895 294.032196
416 -193.969101 266.975586
417 -233.345200 233.345200
418 -266.975586 193.969101
419 -294.032196 149.816895
420 -313.848694 101.975601
421 -325.937195 51.623402
422 -330.000000 0.000000
423 -325.937195 -51.623402
424 -313.848694 -101.975601
425 -294.032196 -149.816895
426 -266.975586 -193.969101
427 -233.345200 -233.345200
428 -193.969101 -266.975586
429 -149.816895 -294.032196
430 -101.975601 -313.848694
431 -51.623402 -325.937195
432 -0.000000 -330.000000
433 51.623402 -325.937195
434 101.975601 -313.848694
435 149.816895 -294.032196
436 193.969101 -266.975586
437 233.345200 -233.345200
438 266.975586 -193.969101
439 294.032196 -149.816895
440 313.848694 -101.975601
441 325.937195 -51.623402
442 360.000000 0.000000
443 355.567810 56.316399
444 342.380310 111.246101
445 320.762299 163.436600
446 291.246094 211.602707
447 254.558395 254.558395
448 211.602707 291.246094
449 163.436600 320.762299
450 111.246101 342.380310
451 56.316399 355.567810
452 0.000000 360.000000
453 -56.316399 355.567810
454 -111.246101 342.380310
455 -163.436600 320.762299
456 -211.602707 291.246094
457 -254.558395 254.558395
458 -291.246094 211.602707
459 -320.762299 163.436600
460 -342.380310 111.246101
461 -355.567810 56.316399
462 -360.000000 0.000000
463 -355.567810 -56.316399
464 -342.380310 -111.246101
465 -320.762299 -163.436600
466 -291.246094 -211.602707
467 -254.558395 -254.558395
468 -211.602707 -291.246094
469 -163.436600 -320.762299
470 -111.246101 -342.380310
471 -56.316399 -355.567810
472 -0.000000 -360.000000
473 56.316399 -355.567810
474 111.246101 -342.380310
475 163.436600 -320.762299
476 211.602707 -291.246094
477 254.558395 -254.558395
478 291.246094 -211.602707
479 320.762299 -163.436600
480 342.380310 -111.246101
481 355.567810 -56.316399
482 390.000000 0.000000
483 385.198486 61.009399
484 370.911987 120.516602
485 347.492493 177.056305
486 315.516602 229.236206
487 275.771606 275.771606
488 229.236206 315.516602
489 177.056305 347.492493
490 120.516602 370.911987
491 61.009399 385.198486
492 0.000000 390.000000
493 -61.009399 385.198486
494 -120.516602 370.911987
495 -177.056305 347.492493
496 -229.236206 315.516602
497 -275.771606 275.771606
498 -315.516602 229.236206
499 -347.492493 177.056305
500 -370.911987 120.516602
501 -385.198486 61.009399
502 -390.000000 0.000000
503 -385.198486 -61.009399
504 -370.911987 -120.516602
505 -347.492493 -177.056305
506 -315.516602 -229.236206
507 -275.771606 -275.771606
508 -229.236206 -315.516602
509 -177.056305 -347.492493
510 -120.516602 -370.911987
511 -61.009399 -385.198486
512 -0.000000 -390.000000
513 61.009399 -385.198486
514 120.516602 -370.911987
515 177.056305 -347.492493
516 229.236206 -315.516602
517 275.771606 -275.771606
518 315.516602 -229.236206
519 347.492493 -177.056305
520 370.911987 -120.516602
521 385.198486 -61.009399
522 420.000000 0.000000
523 414.829102 65.702499
524 399.443695 129.787094
525 374.222687 190.675995
526 339.787109 246.869797
527 296.984802 296.984802
528 246.869797 339.787109
529 190.675995 374.222687
530 129.787094 399.443695
531 65.702499 414.829102
532 0.000000 420.000000
533 -65.702499 414.829102
534 -129.787094 399.443695
535 -190.675995 374.222687
536 -246.869797 339.787109
537 -296.984802 296.984802
538 -339.787109 246.869797
539 -374.222687 190.675995
540 -399.443695 129.787094
541 -414.829102 65.702499
542 -420.000000 0.000000
543 -414.829102 -65.702499
544 -399.443695 -129.787094
545 -374.222687 -190.675995
546 -339.787109 -246.869797
547 -296.984802 -296.984802
548 -246.869797 -339.787109
549 -190.675995 -374.222687
550 -129.787094 -399.443695
551 -65.702499 -414.829102
552 -0.000000 -420.000000
553 65.702499 -414.829102
554 129.787094 -399.443695
555 190.675995 -374.222687
556 246.869797 -339.787109
557 296.984802 -296.984802
558 339.787109 -246.869797
559 374.222687 -190.675995
560 399.443695 -129.787094
561 414.829102 -65.702499
562 450.000000 0.000000
563 444.459808 70.395500
564 427.975403 139.057602
565 400.952911 204.295700
566 364.057587 264.503387
567 318.198090 318.198090
568 264.503387 364.057587
569 204.295700 400.952911
570 139.057602 427.975403
571 70.395500 444.459808
572 0.000000 450.000000
573 -70.395500 444.459808
574 -139.057602 427.975403
575 -204.295700 400.952911
576 -264.503387 364.057587
577 -318.198090 318.198090
578 -364.057587 264.503387
579 -400.952911 204.295700
580 -427.975403 139.057602
581 -444.459808 70.395500
582 -450.000000 0.000000
583 -444.459808 -70.395500
584 -427.975403 -139.057602
585 -400.952911 -204.295700
586 -364.057587 -264.503387
587 -318.198090 -318.198090
588 -264.503387 -364.057587
589 -204.295700 -400.952911
590 -139.057602 -427.975403
591 -70.395500 -444.459808
592 -0.000000 -450.000000
593 70.395500 -444.459808
594 139.057602 -427.975403
595 204.295700 -400.952911
596 264.503387 -364.057587
597 318.198090 -318.198090
598 364.057587 -264.503387
599 400.952911 -204.295700
600 427.975403 -139.057602
601 444.459808 -70.395500
602 480.000000 0.000000
603 474.090393 75.088501
604 456.507111 148.328201
605 427.683105 217.915405
606 388.328186 282.136902
607 339.411285 339.411285
608 282.136902 388.328186
609 217.915405 427.683105
610 148.328201 456.507111
611 75.088501 474.090393
612 0.000000 480.000000
613 -75.088501 474.090393
614 -148.328201 456.507111
615 -217.915405 427.683105
616 -282.136902 388.328186
617 -339.411285 339.411285
618 -388.328186 282.136902
619 -427.683105 217.915405
620 -456.507111 148.328201
621 -474.090393 75.088501
622 -480.000000 0.000000
623 -474.090393 -75.088501
624 -456.507111 -148.328201
625 -427.683105 -217.915405
626 -388.328186 -282.136902
627 -339.411285 -339.411285
628 -282.136902 -388.328186
629 -217.915405 -427.683105
630 -148.328201 -456.507111
631 -75.088501 -474.090393
632 -0.000000 -480.000000
633 75.088501 -474.090393
634 148.328201 -456.507111
635 217.915405 -427.683105
636 282.136902 -388.328186
637 339.411285 -339.411285
638 388.328186 -282.136902
639 427.683105 -217.915405
640 456.507111 -148.328201
641 474.090393 -75.088501
642 510.000000 0.000000
643 503.721100 79.781601
644 485.038788 157.598694
645 454.413300 231.535202
646 412.598694 299.770508
647 360.624512 360.624512
648 299.770508 412.598694
649 231.535202 454.413300
650 157.598694 485.038788
651 79.781601 503.721100
652 0.000000 510.000000
653 -79.781601 503.721100
654 -157.598694 485.038788
655 -231.535202 454.413300
656 -299.770508 412.598694
657 -360.624512 360.624512
658 -412.598694 299.770508
659 -454.413300 231.535202
660 -485.038788 157.598694
661 -503.721100 79.781601
662 -510.000000 0.000000
663 -503.721100 -79.781601
664 -485.038788 -157.598694
665 -454.413300 -231.535202
666 -412.598694 -299.770508
667 -360.624512 -360.624512
668 -299.770508 -412.598694
669 -231.535202 -454.413300
670 -157.598694 -485.038788
671 -79.781601 -503.721100
672 -0.000000 -510.000000
673 79.781601 -503.721100
674 157.598694 -485.038788
675 231.535202 -454.413300
676 299.770508 -412.598694
677 360.624512 -360.624512
678 412.598694 -299.770508
679 454.413300 -231.535202
680 485.038788 -157.598694
681 503.721100 -79.781601
682 540.000000 0.000000
683 533.351685 84.474602
684 513.570496 166.869202
685 481.143494 245.154907
686 436.869202 317.403992
687 381.837708 381.837708
688 317.403992 436.869202
689 245.154907 481.143494
690 166.869202 513.570496
691 84.474602 533.351685
692 0.000000 540.000000
693 -84.474602 533.351685
694 -166.869202 513.570496
695 -245.154907 481.143494
696 -317.403992 436.869202
697 -381.837708 381.837708
698 -436.869202 317.403992
699 -481.143494 245.154907
700 -513.570496 166.869202
701 -533.351685 84.474602
702 -540.000000 0.000000
703 -533.351685 -84.474602
704 -513.570496 -166.869202
705 -481.143494 -245.154907
706 -436.869202 -317.403992
707 -381.837708 -381.837708
708 -317.403992 -436.869202
709 -245.154907 -481.143494
710 -166.869202 -513.570496
711 -84.474602 -533.351685
712 -0.000000 -540.000000
713 84.474602 -533.351685
714 166.869202 -513.570496
715 245.154907 -481.143494
716 317.403992 -436.869202
717 381.837708 -381.837708
718 436.869202 -317.403992
719 481.143494 -245.154907
720 513.570496 -166.869202
721 533.351685 -84.474602
722 570.000000 0.000000
723 562.982422 89.167603
724 542.102173 176.139694
725 507.873688 258.774597
726 461.139709 335.037598
727 403.050903 403.050903
728 335.037598 461.139709
729 258.774597 507.873688
730 176.139694 542.102173
731 89.167603 562.982422
732 0.000000 570.000000
733 -89.167603 562.982422
734 -176.139694 542.102173
735 -258.774597 507.873688
736 -335.037598 461.139709
737 -403.050903 403.050903
738 -461.139709 335.037598
739 -507.873688 258.774597
740 -542.102173 176.139694
741 -562.982422 89.167603
742 -570.000000 0.000000
743 -562.982422 -89.167603
744 -542.102173 -176.139694
745 -507.873688 -258.774597
746 -461.139709 -335.037598
747 -403.050903 -403.050903
748 -335.037598 -461.139709
749 -258.774597 -507.873688
750 -176.139694 -542.102173
751 -89.167603 -562.982422
752 -0.000000 -570.000000
753 89.167603 -562.982422
754 176.139694 -542.102173
755 258.774597 -507.873688
756 335.037598 -461.139709
757 403.050903 -403.050903
758 461.139709 -335.037598
759 507.873688 -258.774597
760 542.102173 -176.139694
761 562.982422 -89.167603
762 600.000000 0.000000
763 592.612976 93.860703
764 570.633911 185.410202
765 534.603882 272.394287
766 485.410187 352.671204
767 424.264099 424.264099
768 352.671204 485.410187
769 272.394287 534.603882
770 185.410202 570.633911
771 93.860703 592.612976
772 0.000000 600.000000
773 -93.860703 592.612976
774 -185.410202 570.633911
775 -272.394287 534.603882
776 -352.671204 485.410187
777 -424.264099 424.264099
778 -485.410187 352.671204
779 -534.603882 272.394287
780 -570.633911 185.410202
781 -592.612976 93.860703
782 -600.000000 0.000000
783 -592.612976 -93.860703
784 -570.633911 -185.410202
785 -534.603882 -272.394287
786 -485.410187 -352.671204
787 -424.264099 -424.264099
788 -352.671204 -485.410187
789 -272.394287 -534.603882
790 -185.410202 -570.633911
791 -93.860703 -592.612976
792 -0.000000 -600.000000
793 93.860703 -592.612976
794 185.410202 -570.633911
795 272.394287 -534.603882
796 352.671204 -485.410187
797 424.264099 -424.264099
798 485.410187 -352.671204
799 534.603882 -272.394287
800 570.633911 -185.410202
801 592.612976 -93.860703
802 630.000000 0.000000
803 622.243713 98.553703
804 599.165588 194.680695
805 561.334106 286.014008
806 509.680695 370.304688
807 445.477295 445.477295
808 370.304688 509.680695
809 286.014008 561.334106
810 194.680695 599.165588
811 98.553703 622.243713
812 0.000000 630.000000
813 -98.553703 622.243713
814 -194.680695 599.165588
815 -286.014008 561.334106
816 -370.304688 509.680695
817 -445.477295 445.477295
818 -509.680695 370.304688
819 -561.334106 286.014008
820 -599.165588 194.680695
821 -622.243713 98.553703
822 -630.000000 0.000000
823 -622.243713 -98.553703
824 -599.165588 -194.680695
825 -561.334106 -286.014008
826 -509.680695 -370.304688
827 -445.477295 -445.477295
828 -370.304688 -509.680695
829 -286.014008 -561.334106
830 -194.680695 -599.165588
831 -98.553703 -622.243713
832 -0.000000 -630.000000
833 98.553703 -622.243713
834 194.680695 -599.165588
835 286.014008 -561.334106
836 370.304688 -509.680695
837 445.477295 -445.477295
838 509.680695 -370.304688
839 561.334106 -286.014008
840 599.165588 -194.680695
841 622.243713 -98.553703
842 660.000000 0.000000
843 651.874329 103.246696
844 627.697327 203.951202
845 588.064270 299.633698
846 533.951172 387.938293
847 466.690491 466.690491
848 387.938293 533.951172
849 299.633698 588.064270
850 203.951202 627.697327
851 103.246696 651.874329
852 0.000000 660.000000
853 -103.246696 651.874329
854 -203.951202 627.697327
855 -299.633698 588.064270
856 -387.938293 533.951172
857 -466.690491 466.690491
858 -533.951172 387.938293
859 -588.064270 299.633698
860 -627.697327 203.951202
861 -651.874329 103.246696
862 -660.000000 0.000000
863 -651.874329 -103.246696
864 -627.697327 -203.951202
865 -588.064270 -299.633698
866 -533.951172 -387.938293
867 -466.690491 -466.690491
868 -387.938293 -533.951172
869 -299.633698 -588.064270
870 -203.951202 -627.697327
871 -103.246696 -651.874329
872 -0.000000 -660.000000
873 103.246696 -651.874329
874 203.951202 -627.697327
875 299.633698 -588.064270
876 387.938293 -533.951172
877 466.690491 -466.690491
878 533.951172 -387.938293
879 588.064270 -299.633698
880 627.697327 -203.951202
881 651.874329 -103.246696
882 690.000000 0.000000
883 681.505005 107.939796
884 656.229004 213.221695
885 614.794495 313.253387
886 558.221680 405.571808
887 487.903687 487.903687
888 405.571808 558.221680
889 313.253387 614.794495
890 213.221695 656.229004
891 107.939796 681.505005
892 0.000000 690.000000
893 -107.939796 681.505005
894 -213.221695 656.229004
895 -313.253387 614.794495
896 -405.571808 558.221680
897 -487.903687 487.903687
898 -558.221680 405.571808
899 -614.794495 313.253387
900 -656.229004 213.221695
901 -681.505005 107.939796
902 -690.000000 0.000000
903 -681.505005 -107.939796
904 -656.229004 -213.221695
905 -614.794495 -313.253387
906 -558.221680 -405.571808
907 -487.903687 -487.903687
908 -405.571808 -558.221680
909 -313.253387 -614.794495
910 -213.221695 -656.229004
911 -107.939796 -681.505005
912 -0.000000 -690.000000
913 107.939796 -681.505005
914 213.221695 -656.229004
915 313.253387 -614.794495
916 405.571808 -558.221680
917 487.903687 -487.903687
918 558.221680 -405.571808
919 614.794495 -313.253387
920 656.229004 -213.221695
921 681.505005 -107.939796
922 720.000000 0.000000
923 711.135620 112.632797
924 684.760681 222.492203
925 641.524719 326.873199
926 582.492188 423.205414
927 509.116913 509.116913
928 423.205414 582.492188
929 326.873199 641.524719
930 222.492203 684.760681
931 112.632797 711.135620
932 0.000000 720.000000
933 -112.632797 711.135620
934 -222.492203 684.760681
935 -326.873199 641.524719
936 -423.205414 582.492188
937 -509.116913 509.116913
938 -582.492188 423.205414
939 -641.524719 326.873199
940 -684.760681 222.492203
941 -711.135620 112.632797
942 -720.000000 0.000000
943 -711.135620 -112.632797
944 -684.760681 -222.492203
945 -641.524719 -326.873199
946 -582.492188 -423.205414
947 -509.116913 -509.116913
948 -423.205414 -582.492188
949 -326.873199 -641.524719
950 -222.492203 -684.760681
951 -112.632797 -711.135620
952 -0.000000 -720.000000
953 112.632797 -711.135620
954 222.492203 -684.760681
955 326.873199 -641.524719
956 423.205414 -582.492188
957 509.116913 -509.116913
958 582.492188 -423.205414
959 641.524719 -326.873199
960 684.760681 -222.492203
961 711.135620 -112.632797
GVRP_SET_SECTION 
 1 922  842  882 -1
 2  942  862  902 -1
 3  932  852  892 -1
 4  952  872  912 -1
 5  7  2  3  4  5  6  8  9  10  11  12  13  14  15  16  17  36  37  38  39  40  41  42  43  44  45  46  47  48  80  81 -1
 6  927  847  887 -1
 7  937  857  897 -1
 8  947  867  907 -1
 9  957  877  917 -1
 10  465  425  505  545 -1
 11  474  434  475  514  554 -1
 12  494  454  495  534  574 -1
 13  484  444  524  564 -1
 14  569  489  529  609  649 -1
 15  579  499  539  619  659 -1
 16  599  519  559  639  679 -1
 17  629  589  669  709 -1
 18  784  704  744  824  864 -1
 19  794  714  754  834  874 -1
 20  804  724  764  844 -1
 21  814  734  774  854 -1
 22  261  220  221  222  260  262  300  301  341 -1
 23  269  229  268  270  308  309  310 -1
 24  929  849  889 -1
 25  939  859  899 -1
 26  949  869  909 -1
 27  959  879  919 -1
 28  318  278  317  319  357  358 -1
 29  290  210  249  250  251  289  291  329  330  331 -1
 30  582  502  542  622  662 -1
 31  686  606  646  726  766 -1
 32  696  616  656  736  776 -1
 33  672  592  632  712 -1
 34  676  636  716  756 -1
 35  706  626  666  746  786 -1
 36  642  562  602  682 -1
 37  652  612  692 -1
 38  244  203  204  205  243  245  283  284  285 -1
 39  377  337  376  378  416  417  418  457 -1
 40  471  391  431  470  511 -1
 41  407  367  368  406  408  447  487 -1
 42  441  401  402  440  481  521 -1
 43  768  728  808  848 -1
 44  770  730  810  850 -1
 45  778  738  818  858 -1
 46  780  740  820  860 -1
 47  798  758  838  878 -1
 48  800  760  840  880 -1
 49  945  865  905 -1
 50  955  875  915 -1
 51  176  136  137  174  175  177  178  215  216  217 -1
 52  194  153  154  193  195  196  233  234  235  274 -1
 53  788  748  828  868 -1
 54  790  750  830  870 -1
 55  491  451  531 -1
 56  517  477  557 -1
 57  925  845  885 -1
 58  935  855  895 -1
 59  468  428  467  508  548 -1
 60  145  104  105  106  107  143  144  146  147  148  185  186 -1
 61  420  380  381  419  421  459  460 -1
 62  876  796  836  916  956 -1
 63  333  292  293  332  334  373 -1
 64  305  265  304  306  344  345 -1
 65  536  456  496  576 -1
 66  624  584  664 -1
 67  634  594  674 -1
 68  644  604  684 -1
 69  654  614  694 -1
 70  742  702  782  822 -1
 71  846  806  886  926 -1
 72  856  816  896  936 -1
 73  866  826  906  946 -1
 74  567  527  607  647 -1
 75  851  811  891  931 -1
 76  861  781  821  901  941 -1
 77  863  783  823  903  943 -1
 78  871  831  911  951 -1
 79  873  833  913  953 -1
 80  881  841  921  961 -1
 81  883  803  843  923 -1
 82  893  813  853  933 -1
 83  928  888 -1
 84  930  890 -1
 85  938  898 -1
 86  940  900 -1
 87  944  904 -1
 88  948  908 -1
 89  950  910 -1
 90  954  914 -1
 91  958  918 -1
 92  960  920 -1
 93  423  382  383  384  422  424  462  463 -1
 94  160  82  119  120  121  122  158  159  161  162  200  201 -1
 95  587  507  547  627  667 -1
 96  168  127  128  166  167  169  170  206  207  208  209 -1
 97  312  271  272  273  311  313  351  352 -1
 98  723  643  683  763 -1
 99  733  653  693  773 -1
 100  396  356  395  397  435  436  437  476 -1
 101  765  685  725  805 -1
 102  775  695  735  815 -1
 103  409  369  370  410  449 -1
 104  439  398  399  438  479 -1
 105  363  322  323  324  362  364  403  404  443 -1
 106  729  689  769  809 -1
 107  739  699  779  819 -1
 108  755  675  715  795  835 -1
 109  757  717  797  837 -1
 110  759  719  799  839 -1
 111  601  561  641  681 -1
 112  661  581  621  701  741 -1
 113  365  325  366  405  445 -1
 114  375  335  374  414  415  455 -1
 115  767  687  727  807 -1
 116  777  697  737  817 -1
 117  785  745  825 -1
 118  787  707  747  827 -1
 119  789  749  829 -1
 120  172  131  132  171  173  211  212  213  252 -1
 121  281  202  241  242  280  282  321 -1
 122  617  537  577  657 -1
 123  703  623  663  743 -1
 124  287  246  247  248  286  288  326  327  328 -1
 125  591  551  631  671 -1
 126  648  568  608  688 -1
 127  650  610  690 -1
 128  678  638  718 -1
 129  680  600  640  720 -1
 130  731  691  771 -1
 131  751  711  791 -1
 132  753  673  713  793 -1
 133  761  721  801 -1
 134  762  722  802 -1
 135  772  732  812 -1
 136  792  752  832 -1
 137  924  884 -1
 138  934  894 -1
 139  498  458  497  538  578 -1
 140  563  483  523  603 -1
 141  565  485  525  605  645 -1
 142  573  533  613 -1
 143  70  26  27  28  29  30  31  32  33  34  35  66  67  68  69  71  72  73  74  108  109  110  111  112 -1
 144  140  98  99  100  138  139  141  142  179  180  181  182 -1
 145  553  513  593  633 -1
 146  555  515  595  635 -1
 147  347  307  346  348  387 -1
 148  354  314  353  355  394 -1
 149  611  571  651 -1
 150  615  535  575  655 -1
 151  637  597  677 -1
 152  658  618  698 -1
 153  665  585  625  705 -1
 154  668  588  628  708 -1
 155  670  630  710 -1
 156  258  218  219  257  259  298 -1
 157  482  442  522 -1
 158  486  446  526  566 -1
 159  488  448  528 -1
 160  501  461  541 -1
 161  520  480  560 -1
 162  660  620  700 -1
 163  389  349  350  388  390  429  430 -1
 164  276  236  237  275  277  315  316 -1
 165  412  371  372  411  452 -1
 166  303  263  302  342  343 -1
 167  543  503  583 -1
 168  546  506  586 -1
 169  550  510  590 -1
 170  124  83  84  85  123  125  126  163  164  165 -1
 171  296  256  295  297  336 -1
 172  254  214  253  255  294 -1
 173  339  299  338  340  379 -1
 174  360  320  359  361  400 -1
 175  94  52  53  54  55  56  57  92  93  95  96  97  133  134  135 -1
 176  116  75  76  77  78  79  113  114  115  117  118  155  156  157 -1
 177  191  149  150  151  152  189  190  192  230  231  232 -1
 178  530  450  490  570 -1
 179  532  492  572 -1
 180  540  500  580 -1
 181  558  478  518  598 -1
 182  227  187  188  226  228  266  267 -1
 183  62  18  19  20  21  22  23  24  25  58  59  60  61  63  64  65  101  102  103 -1
 184  504  464  544 -1
 185  509  469  549 -1
 186  512  472  552 -1
 187  556  516  596 -1
 188  224  183  184  223  225  264 -1
 189  239  197  198  199  238  240  279 -1
 190  89  49  50  51  86  87  88  90  91  129  130 -1
 191  426  385  386  427  466 -1
 192  433  392  393  432  473 -1
 193  453  413  493 -1
 DEMAND_SECTION
 1 30 
 2 30 
 3 90 
 4 90 
 5 630 
 6 90 
 7 30 
 8 90 
 9 30 
 10 40 
 11 70 
 12 70 
 13 120 
 14 50 
 15 150 
 16 150 
 17 40 
 18 150 
 19 50 
 20 120 
 21 40 
 22 150 
 23 110 
 24 30 
 25 90 
 26 30 
 27 90 
 28 80 
 29 160 
 30 50 
 31 50 
 32 150 
 33 120 
 34 120 
 35 50 
 36 40 
 37 90 
 38 210 
 39 120 
 40 130 
 41 190 
 42 80 
 43 120 
 44 40 
 45 40 
 46 120 
 47 40 
 48 120 
 49 30 
 50 90 
 51 200 
 52 160 
 53 120 
 54 40 
 55 90 
 56 30 
 57 30 
 58 90 
 59 150 
 60 240 
 61 170 
 62 150 
 63 100 
 64 100 
 65 120 
 66 90 
 67 30 
 68 90 
 69 30 
 70 40 
 71 40 
 72 120 
 73 40 
 74 120 
 75 120 
 76 50 
 77 150 
 78 120 
 79 40 
 80 40 
 81 120 
 82 40 
 83 60 
 84 20 
 85 20 
 86 60 
 87 60 
 88 60 
 89 20 
 90 20 
 91 20 
 92 60 
 93 180 
 94 220 
 95 150 
 96 230 
 97 200 
 98 120 
 99 40 
 100 200 
 101 40 
 102 120 
 103 50 
 104 110 
 105 230 
 106 40 
 107 120 
 108 150 
 109 40 
 110 120 
 111 40 
 112 50 
 113 50 
 114 140 
 115 120 
 116 40 
 117 30 
 118 120 
 119 30 
 120 230 
 121 90 
 122 40 
 123 120 
 124 210 
 125 120 
 126 120 
 127 30 
 128 30 
 129 120 
 130 90 
 131 90 
 132 40 
 133 30 
 134 30 
 135 90 
 136 90 
 137 60 
 138 20 
 139 50 
 140 120 
 141 50 
 142 30 
 143 480 
 144 240 
 145 40 
 146 120 
 147 130 
 148 70 
 149 90 
 150 120 
 151 30 
 152 30 
 153 40 
 154 120 
 155 30 
 156 100 
 157 30 
 158 40 
 159 90 
 160 30 
 161 90 
 162 90 
 163 90 
 164 170 
 165 150 
 166 110 
 167 90 
 168 30 
 169 30 
 170 220 
 171 130 
 172 70 
 173 130 
 174 130 
 175 290 
 176 280 
 177 230 
 178 40 
 179 90 
 180 90 
 181 40 
 182 170 
 183 370 
 184 90 
 185 30 
 186 90 
 187 90 
 188 160 
 189 150 
 190 190 
 191 70 
 192 90 
 193 30 
EOF
